DATASET = "thpack7";
INSTANCE = "018";

WIDTH = 233;
HEIGHT = 220;
LENGTH = 587;

NO_OF_SHAPES = 20;
size = [|
  104,55,30 |
  92,89,73 |
  88,88,43 |
  90,60,60 |
  79,53,41 |
  96,91,28 |
  100,90,79 |
  73,42,32 |
  115,85,60 |
  113,83,76 |
  68,50,31 |
  70,41,30 |
  104,60,26 |
  86,36,29 |
  114,31,29 |
  44,44,42 |
  73,68,62 |
  98,94,74 |
  92,44,40 |
  99,98,68 |
|];

verticality = [|
  0,1,1 |
  1,1,1 |
  0,0,1 |
  1,1,1 |
  1,1,1 |
  0,0,1 |
  1,1,1 |
  0,1,1 |
  1,1,1 |
  1,1,1 |
  0,1,1 |
  0,1,1 |
  0,0,1 |
  0,1,1 |
  0,1,1 |
  1,1,1 |
  1,1,1 |
  1,1,1 |
  0,1,1 |
  1,1,1 |
|];

box_count = [
  3,
  4,
  7,
  4,
  6,
  7,
  3,
  3,
  6,
  3,
  2,
  10,
  8,
  6,
  6,
  6,
  7,
  3,
  3,
  6,
];
